p cnf 65 172
1 -39 0
1 -40 0
39 -39 0
40 -40 0
20 -41 0
20 -42 0
41 -41 0
42 -42 0
2 -39 0
2 -40 0
39 -39 0
40 -40 0
21 -41 0
21 -42 0
41 -41 0
42 -42 0
3 -39 0
3 -40 0
39 -39 0
40 -40 0
22 -41 0
22 -42 0
41 -41 0
42 -42 0
4 -43 -39 0
-4 43 -39 0
4 43 -40 0
-4 -43 -40 0
23 -43 -41 0
-23 43 -41 0
23 43 -42 0
-23 -43 -42 0
5 -44 -39 0
-5 44 -39 0
5 44 -40 0
-5 -44 -40 0
24 -44 -41 0
-24 44 -41 0
24 44 -42 0
-24 -44 -42 0
6 -39 0
6 -40 0
39 -39 0
40 -40 0
25 -41 0
25 -42 0
41 -41 0
42 -42 0
7 -39 0
7 -40 0
39 -39 0
40 -40 0
26 -41 0
26 -42 0
41 -41 0
42 -42 0
8 -45 -39 0
-8 45 -39 0
8 45 -40 0
-8 -45 -40 0
27 -45 -41 0
-27 45 -41 0
27 45 -42 0
-27 -45 -42 0
9 -46 -39 0
-9 46 -39 0
9 46 -40 0
-9 -46 -40 0
28 -46 -41 0
-28 46 -41 0
28 46 -42 0
-28 -46 -42 0
10 -47 -39 0
-10 47 -39 0
10 47 -40 0
-10 -47 -40 0
29 -47 -41 0
-29 47 -41 0
29 47 -42 0
-29 -47 -42 0
11 -39 0
11 -40 0
39 -39 0
40 -40 0
30 -41 0
30 -42 0
41 -41 0
42 -42 0
12 -39 0
12 -40 0
39 -39 0
40 -40 0
31 -41 0
31 -42 0
41 -41 0
42 -42 0
13 -39 0
13 -40 0
39 -39 0
40 -40 0
32 -41 0
32 -42 0
41 -41 0
42 -42 0
14 -39 0
14 -40 0
39 -39 0
40 -40 0
33 -41 0
33 -42 0
41 -41 0
42 -42 0
15 -48 -39 0
-15 48 -39 0
15 48 -40 0
-15 -48 -40 0
34 -48 -41 0
-34 48 -41 0
34 48 -42 0
-34 -48 -42 0
16 -39 0
16 -40 0
39 -39 0
40 -40 0
35 -41 0
35 -42 0
41 -41 0
42 -42 0
17 -39 0
17 -40 0
39 -39 0
40 -40 0
36 -41 0
36 -42 0
41 -41 0
42 -42 0
-18 -39 0
-18 -40 0
39 -39 0
40 -40 0
-37 -41 0
-37 -42 0
41 -41 0
42 -42 0
-19 -39 0
-19 -40 0
39 -39 0
40 -40 0
-38 -41 0
-38 -42 0
41 -41 0
42 -42 0
-62 39 0
62 -39 0
-63 40 0
62 -40 0
-62 -39 0
-63 -40 0
-64 39 62 0
64 -39 0
64 -62 0
-65 40 63 0
65 -40 0
65 -63 0
-64 -41 0
-65 -42 0
64 0
65 0
-39 42 0
-40 0
-41 0
-42 39 0
